sat
(:added-eqs                   16294
 :arith-bound-propagations-lp 58392
 :arith-conflicts             876
 :arith-fixed-eqs             4183
 :arith-lower                 85863
 :arith-make-feasible         34095
 :arith-max-columns           870
 :arith-max-rows              441
 :arith-offset-eqs            12225
 :arith-upper                 60212
 :binary-propagations         98729
 :conflicts                   1203
 :decisions                   22735
 :del-clause                  105
 :final-checks                1
 :max-memory                  32.24
 :memory                      20.98
 :minimized-lits              2855
 :mk-bool-var                 3799
 :mk-clause                   1921
 :mk-clause-binary            5324
 :num-allocs                  70268617
 :num-checks                  1
 :propagations                122091
 :restarts                    4
 :rlimit-count                2418543
 :solve-eqs-elim-vars         355
 :solve-eqs-steps             2203
 :time                        1.33
 :total-time                  1.36)
